Default LOCALE: LC_CTYPE=en_US.UTF-8;LC_NUMERIC=it_IT.UTF-8;LC_TIME=en_US.UTF-8;LC_COLLATE=en_US.UTF-8;LC_MONETARY=it_IT.UTF-8;LC_MESSAGES=en_US.UTF-8;LC_PAPER=it_IT.UTF-8;LC_NAME=it_IT.UTF-8;LC_ADDRESS=it_IT.UTF-8;LC_TELEPHONE=it_IT.UTF-8;LC_MEASUREMENT=it_IT.UTF-8;LC_IDENTIFICATION=it_IT.UTF-8

<<< setup, at 0s, took 1,54878e+09s


<<< generate, at 0,01s, took 0,00702381s

CPXPARAM_TimeLimit                               9999
Tried aggregator 1 time.
MIP Presolve eliminated 19 rows and 19 columns.
Reduced MIP has 441 rows, 781 columns, and 2304 nonzeros.
Reduced MIP has 400 binaries, 381 generals, 0 SOSs, and 0 indicators.
Presolve time = 0,00 sec. (1,39 ticks)
Found incumbent of value 162,062044 after 0,01 sec. (6,21 ticks)
Probing fixed 19 vars, tightened 0 bounds.
Probing time = 0,00 sec. (3,10 ticks)
Cover probing fixed 0 vars, tightened 361 bounds.
Tried aggregator 1 time.
MIP Presolve eliminated 21 rows and 39 columns.
MIP Presolve modified 362 coefficients.
Reduced MIP has 420 rows, 742 columns, and 2206 nonzeros.
Reduced MIP has 381 binaries, 361 generals, 0 SOSs, and 0 indicators.
Presolve time = 0,00 sec. (2,40 ticks)
Probing time = 0,00 sec. (2,68 ticks)
Clique table members: 40.
MIP emphasis: balance optimality and feasibility.
MIP search method: dynamic search.
Parallel mode: deterministic, using up to 4 threads.
Root relaxation solution time = 0,00 sec. (4,38 ticks)

        Nodes                                         Cuts/
   Node  Left     Objective  IInf  Best Integer    Best Bound    ItCnt     Gap

*     0+    0                          162,0620        0,0000           100,00%
      0     0       39,7883    47      162,0620       39,7883      258   75,45%
      0     0       45,2958    77      162,0620      Cuts: 75      416   72,05%
*     0+    0                           58,8145       45,2958            22,99%
      0     0       47,7100    80       58,8145      Cuts: 34      559   18,88%
      0     0       48,8309    73       58,8145      Cuts: 37      860   16,97%
      0     0       49,5243    88       58,8145      Cuts: 13     1028   15,80%
*     0+    0                           50,4672       49,5243             1,87%
      0     0       49,6631    84       50,4672      Cuts: 20     1089    1,59%

Repeating presolve.
Tried aggregator 2 times.
MIP Presolve eliminated 255 rows and 524 columns.
MIP Presolve modified 6 coefficients.
Aggregator did 30 substitutions.
Reduced MIP has 135 rows, 188 columns, and 677 nonzeros.
Reduced MIP has 82 binaries, 106 generals, 0 SOSs, and 0 indicators.
Presolve time = 0,00 sec. (0,91 ticks)
Probing time = 0,00 sec. (0,20 ticks)
Tried aggregator 1 time.
Reduced MIP has 135 rows, 188 columns, and 677 nonzeros.
Reduced MIP has 82 binaries, 106 generals, 0 SOSs, and 0 indicators.
Presolve time = 0,00 sec. (0,43 ticks)
Represolve time = 0,00 sec. (3,19 ticks)
Probing time = 0,00 sec. (0,20 ticks)
Clique table members: 31.
MIP emphasis: balance optimality and feasibility.
MIP search method: dynamic search.
Parallel mode: deterministic, using up to 4 threads.
Root relaxation solution time = 0,00 sec. (2,24 ticks)

        Nodes                                         Cuts/
   Node  Left     Objective  IInf  Best Integer    Best Bound    ItCnt     Gap

*     0+    0                           50,4672       49,6631             1,59%
      0     0       49,6631    74       50,4672       49,6631     1331    1,59%
*     0+    0                           49,9098       49,6631             0,49%

Cover cuts applied:  8
Implied bound cuts applied:  19
Flow cuts applied:  17
Mixed integer rounding cuts applied:  7
Zero-half cuts applied:  5
Multi commodity flow cuts applied:  1
Lift and project cuts applied:  13

Root node processing (before b&c):
  Real time             =    0,37 sec. (233,83 ticks)
Parallel b&c, 4 threads:
  Real time             =    0,00 sec. (0,00 ticks)
  Sync time (average)   =    0,00 sec.
  Wait time (average)   =    0,00 sec.
                          ------------
Total (root+branch&cut) =    0,37 sec. (233,83 ticks)

<<< solve, at 1,31s, took 0,373328s


OBJECTIVE: 49.90976
01/29/2019 17:12:11 571
solving time ~= 377.830078125
Done
 [[0 1 0 0 0 0 0 0 0 0 0 0 0 0 0 0 0 0 0 0]
         [0 0 20 0 0 0 0 0 0 0 0 0 0 0 0 0 0 0 0 0]
         [0 0 0 19 0 0 0 0 0 0 0 0 0 0 0 0 0 0 0 0]
         [0 0 0 0 18 0 0 0 0 0 0 0 0 0 0 0 0 0 0 0]
         [0 0 0 0 0 17 0 0 0 0 0 0 0 0 0 0 0 0 0 0]
         [0 0 0 0 0 0 0 0 0 16 0 0 0 0 0 0 0 0 0 0]
         [2 0 0 0 0 0 0 0 0 0 0 0 0 0 0 0 0 0 0 0]
         [0 0 0 0 0 0 3 0 0 0 0 0 0 0 0 0 0 0 0 0]
         [0 0 0 0 0 0 0 0 0 0 0 14 0 0 0 0 0 0 0 0]
         [0 0 0 0 0 0 0 0 15 0 0 0 0 0 0 0 0 0 0 0]
         [0 0 0 0 0 0 0 4 0 0 0 0 0 0 0 0 0 0 0 0]
         [0 0 0 0 0 0 0 0 0 0 0 0 13 0 0 0 0 0 0 0]
         [0 0 0 0 0 0 0 0 0 0 0 0 0 0 0 12 0 0 0 0]
         [0 0 0 0 0 0 0 0 0 0 5 0 0 0 0 0 0 0 0 0]
         [0 0 0 0 0 0 0 0 0 0 0 0 0 0 0 0 0 7 0 0]
         [0 0 0 0 0 0 0 0 0 0 0 0 0 0 0 0 11 0 0 0]
         [0 0 0 0 0 0 0 0 0 0 0 0 0 0 0 0 0 0 0 10]
         [0 0 0 0 0 0 0 0 0 0 0 0 0 6 0 0 0 0 0 0]
         [0 0 0 0 0 0 0 0 0 0 0 0 0 0 8 0 0 0 0 0]
         [0 0 0 0 0 0 0 0 0 0 0 0 0 0 0 0 0 0 9 0]]

<<< post process, at 1,31s, took 0,00104594s

// solution (integer optimal, tolerance) with objective 49.909758584942
// Quality Incumbent solution:
// MILP objective                                 4,9909758585e+01
// MILP solution norm |x| (Total, Max)            2,30000e+02  2,00000e+01
// MILP solution error (Ax=b) (Total, Max)        0,00000e+00  0,00000e+00
// MILP x bound error (Total, Max)                0,00000e+00  0,00000e+00
// MILP x integrality error (Total, Max)          0,00000e+00  0,00000e+00
// MILP slack bound error (Total, Max)            0,00000e+00  0,00000e+00
// 

y = [[0
             1 0 0 0 0 0 0 0 0 0 0 0 0 0 0 0 0 0 0]
             [0 0 1 0 0 0 0 0 0 0 0 0 0 0 0 0 0 0 0 0]
             [0 0 0 1 0 0 0 0 0 0 0 0 0 0 0 0 0 0 0 0]
             [0 0 0 0 1 0 0 0 0 0 0 0 0 0 0 0 0 0 0 0]
             [0 0 0 0 0 1 0 0 0 0 0 0 0 0 0 0 0 0 0 0]
             [0 0 0 0 0 0 0 0 0 1 0 0 0 0 0 0 0 0 0 0]
             [1 0 0 0 0 0 0 0 0 0 0 0 0 0 0 0 0 0 0 0]
             [0 0 0 0 0 0 1 0 0 0 0 0 0 0 0 0 0 0 0 0]
             [0 0 0 0 0 0 0 0 0 0 0 1 0 0 0 0 0 0 0 0]
             [0 0 0 0 0 0 0 0 1 0 0 0 0 0 0 0 0 0 0 0]
             [0 0 0 0 0 0 0 1 0 0 0 0 0 0 0 0 0 0 0 0]
             [0 0 0 0 0 0 0 0 0 0 0 0 1 0 0 0 0 0 0 0]
             [0 0 0 0 0 0 0 0 0 0 0 0 0 0 0 1 0 0 0 0]
             [0 0 0 0 0 0 0 0 0 0 1 0 0 0 0 0 0 0 0 0]
             [0 0 0 0 0 0 0 0 0 0 0 0 0 0 0 0 0 1 0 0]
             [0 0 0 0 0 0 0 0 0 0 0 0 0 0 0 0 1 0 0 0]
             [0 0 0 0 0 0 0 0 0 0 0 0 0 0 0 0 0 0 0 1]
             [0 0 0 0 0 0 0 0 0 0 0 0 0 1 0 0 0 0 0 0]
             [0 0 0 0 0 0 0 0 0 0 0 0 0 0 1 0 0 0 0 0]
             [0 0 0 0 0 0 0 0 0 0 0 0 0 0 0 0 0 0 1 0]];
x = [[0 1 0 0 0 0 0 0 0 0 0 0 0 0 0 0 0 0 0 0]
             [0 0 20 0 0 0 0 0 0 0 0 0 0 0 0 0 0 0 0 0]
             [0 0 0 19 0 0 0 0 0 0 0 0 0 0 0 0 0 0 0 0]
             [0 0 0 0 18 0 0 0 0 0 0 0 0 0 0 0 0 0 0 0]
             [0 0 0 0 0 17 0 0 0 0 0 0 0 0 0 0 0 0 0 0]
             [0 0 0 0 0 0 0 0 0 16 0 0 0 0 0 0 0 0 0 0]
             [2 0 0 0 0 0 0 0 0 0 0 0 0 0 0 0 0 0 0 0]
             [0 0 0 0 0 0 3 0 0 0 0 0 0 0 0 0 0 0 0 0]
             [0 0 0 0 0 0 0 0 0 0 0 14 0 0 0 0 0 0 0 0]
             [0 0 0 0 0 0 0 0 15 0 0 0 0 0 0 0 0 0 0 0]
             [0 0 0 0 0 0 0 4 0 0 0 0 0 0 0 0 0 0 0 0]
             [0 0 0 0 0 0 0 0 0 0 0 0 13 0 0 0 0 0 0 0]
             [0 0 0 0 0 0 0 0 0 0 0 0 0 0 0 12 0 0 0 0]
             [0 0 0 0 0 0 0 0 0 0 5 0 0 0 0 0 0 0 0 0]
             [0 0 0 0 0 0 0 0 0 0 0 0 0 0 0 0 0 7 0 0]
             [0 0 0 0 0 0 0 0 0 0 0 0 0 0 0 0 11 0 0 0]
             [0 0 0 0 0 0 0 0 0 0 0 0 0 0 0 0 0 0 0 10]
             [0 0 0 0 0 0 0 0 0 0 0 0 0 6 0 0 0 0 0 0]
             [0 0 0 0 0 0 0 0 0 0 0 0 0 0 8 0 0 0 0 0]
             [0 0 0 0 0 0 0 0 0 0 0 0 0 0 0 0 0 0 9 0]];

<<< done, at 1,31s, took 0,00126886s

